language Essence 1.3

letting class be function(1 --> 1, 2 --> 1, 3 --> 1, 4 --> 1, 5 --> 1, 6 --> 1)
letting deck_length be 45
letting deck_width be 12
letting length be function(1 --> 7, 2 --> 3, 3 --> 1, 4 --> 1, 5 --> 1, 6 --> 1)
letting n_classes be 1
letting n_containers be 6
letting separation be function()
letting width be function(1 --> 9, 2 --> 9, 3 --> 4, 4 --> 1, 5 --> 1, 6 --> 1)
